(set-logic QF_S)
(declare-fun var_0xINPUT_109211 () String)
(assert (and (= (len var_0xINPUT_109211) 0) (= (len var_0xINPUT_109211) 0) (not (= var_0xINPUT_109211 "Example:")) (not (= var_0xINPUT_109211 "AA1ND6MEXd"))))
(check-sat var_0xINPUT_109211)